140
1000
116
159
22
608
344
47
10
322
680
630
540
392
62
637
164
91
417
472
293
171
88
173
92
77
147
308
239
474
352
381
67
538
749
577
459
220
409
384
459
61
616
532
126
450
17
20
480
476
303
694
387
277
68
458
603
262
507
510
111
683
706
587
361
546
432
199
15
420
95
96
550
413
70
67
384
702
468
335
102
731
269
39
669
541
32
300
580
228
72
270
177
1
121
416
292
295
333
180
93
526
113
591
103
450
642
429
158
159
450
306
64
247
49
250
37
639
180
227
288
163
361
221
528
138
226
477
661
448
251
446
221
94
678
422
32
155
116
52
711
493
